0 501406 
1 499988 
2 497158 
3 494632 
4 492474 
5 492274 
6 490694 
7 490632 
8 489700 
9 489600 
10 489504 
11 486994 
12 486258 
13 486120 
14 484722 
15 483684 
16 483440 
17 482246 
18 481412 
19 481132 
20 480690 
21 478636 
22 476324 
23 474756 
24 473258 
25 466194 
26 464700 
27 462968 
28 460186 
29 457426 
30 455122 
31 450602 
32 440858 
33 440062 
34 439152 
35 436298 
36 433690 
37 433256 
38 432598 
39 431704 
40 430440 
41 429832 
42 429614 
43 429150 
44 428520 
45 425638 
46 423420 
47 418022 
48 416760 
49 409828 
50 409592 
51 406202 
52 406104 
53 401242 
54 400288 
55 399962 
56 397410 
57 397014 
58 397014 

